*Heading
** FinEleMethod H8 uniaxial-compression verification model
** Consistent units: length, force, stress
*Node
1, 0.0, 0.0, 0.0
2, 1.0, 0.0, 0.0
3, 1.0, 1.0, 0.0
4, 0.0, 1.0, 0.0
5, 0.0, 0.0, 1.0
6, 1.0, 0.0, 1.0
7, 1.0, 1.0, 1.0
8, 0.0, 1.0, 1.0
*Material, name=TestMaterial
*Elastic
1000.0, 0.25
*Element, type=C3D8, elset=Block
1, 1, 2, 3, 4, 5, 6, 7, 8
*Solid Section, elset=Block, material=TestMaterial
*Nset, nset=Bottom
1, 2, 3, 4
*Nset, nset=FixedX
1, 4, 5, 8
*Nset, nset=FixedY
1, 2, 5, 6
*Boundary
Bottom, 3, 3, 0.0
FixedX, 1, 1, 0.0
FixedY, 2, 2, 0.0
*Dload
Block, P2, 10.0
