*Heading
** FinEleMethod Q4 plane-stress cantilever-beam benchmark
** Length=10, height=1, thickness=1, E=1000, nu=0.25, end load=-1
*Node
1, 0.0, -0.50
2, 0.5, -0.50
3, 1.0, -0.50
4, 1.5, -0.50
5, 2.0, -0.50
6, 2.5, -0.50
7, 3.0, -0.50
8, 3.5, -0.50
9, 4.0, -0.50
10, 4.5, -0.50
11, 5.0, -0.50
12, 5.5, -0.50
13, 6.0, -0.50
14, 6.5, -0.50
15, 7.0, -0.50
16, 7.5, -0.50
17, 8.0, -0.50
18, 8.5, -0.50
19, 9.0, -0.50
20, 9.5, -0.50
21, 10.0, -0.50
22, 0.0, -0.25
23, 0.5, -0.25
24, 1.0, -0.25
25, 1.5, -0.25
26, 2.0, -0.25
27, 2.5, -0.25
28, 3.0, -0.25
29, 3.5, -0.25
30, 4.0, -0.25
31, 4.5, -0.25
32, 5.0, -0.25
33, 5.5, -0.25
34, 6.0, -0.25
35, 6.5, -0.25
36, 7.0, -0.25
37, 7.5, -0.25
38, 8.0, -0.25
39, 8.5, -0.25
40, 9.0, -0.25
41, 9.5, -0.25
42, 10.0, -0.25
43, 0.0, 0.00
44, 0.5, 0.00
45, 1.0, 0.00
46, 1.5, 0.00
47, 2.0, 0.00
48, 2.5, 0.00
49, 3.0, 0.00
50, 3.5, 0.00
51, 4.0, 0.00
52, 4.5, 0.00
53, 5.0, 0.00
54, 5.5, 0.00
55, 6.0, 0.00
56, 6.5, 0.00
57, 7.0, 0.00
58, 7.5, 0.00
59, 8.0, 0.00
60, 8.5, 0.00
61, 9.0, 0.00
62, 9.5, 0.00
63, 10.0, 0.00
64, 0.0, 0.25
65, 0.5, 0.25
66, 1.0, 0.25
67, 1.5, 0.25
68, 2.0, 0.25
69, 2.5, 0.25
70, 3.0, 0.25
71, 3.5, 0.25
72, 4.0, 0.25
73, 4.5, 0.25
74, 5.0, 0.25
75, 5.5, 0.25
76, 6.0, 0.25
77, 6.5, 0.25
78, 7.0, 0.25
79, 7.5, 0.25
80, 8.0, 0.25
81, 8.5, 0.25
82, 9.0, 0.25
83, 9.5, 0.25
84, 10.0, 0.25
85, 0.0, 0.50
86, 0.5, 0.50
87, 1.0, 0.50
88, 1.5, 0.50
89, 2.0, 0.50
90, 2.5, 0.50
91, 3.0, 0.50
92, 3.5, 0.50
93, 4.0, 0.50
94, 4.5, 0.50
95, 5.0, 0.50
96, 5.5, 0.50
97, 6.0, 0.50
98, 6.5, 0.50
99, 7.0, 0.50
100, 7.5, 0.50
101, 8.0, 0.50
102, 8.5, 0.50
103, 9.0, 0.50
104, 9.5, 0.50
105, 10.0, 0.50
*Material, name=BeamMaterial
*Elastic
1000.0, 0.25
*Element, type=CPS4, elset=Beam
1, 1, 2, 23, 22
2, 2, 3, 24, 23
3, 3, 4, 25, 24
4, 4, 5, 26, 25
5, 5, 6, 27, 26
6, 6, 7, 28, 27
7, 7, 8, 29, 28
8, 8, 9, 30, 29
9, 9, 10, 31, 30
10, 10, 11, 32, 31
11, 11, 12, 33, 32
12, 12, 13, 34, 33
13, 13, 14, 35, 34
14, 14, 15, 36, 35
15, 15, 16, 37, 36
16, 16, 17, 38, 37
17, 17, 18, 39, 38
18, 18, 19, 40, 39
19, 19, 20, 41, 40
20, 20, 21, 42, 41
21, 22, 23, 44, 43
22, 23, 24, 45, 44
23, 24, 25, 46, 45
24, 25, 26, 47, 46
25, 26, 27, 48, 47
26, 27, 28, 49, 48
27, 28, 29, 50, 49
28, 29, 30, 51, 50
29, 30, 31, 52, 51
30, 31, 32, 53, 52
31, 32, 33, 54, 53
32, 33, 34, 55, 54
33, 34, 35, 56, 55
34, 35, 36, 57, 56
35, 36, 37, 58, 57
36, 37, 38, 59, 58
37, 38, 39, 60, 59
38, 39, 40, 61, 60
39, 40, 41, 62, 61
40, 41, 42, 63, 62
41, 43, 44, 65, 64
42, 44, 45, 66, 65
43, 45, 46, 67, 66
44, 46, 47, 68, 67
45, 47, 48, 69, 68
46, 48, 49, 70, 69
47, 49, 50, 71, 70
48, 50, 51, 72, 71
49, 51, 52, 73, 72
50, 52, 53, 74, 73
51, 53, 54, 75, 74
52, 54, 55, 76, 75
53, 55, 56, 77, 76
54, 56, 57, 78, 77
55, 57, 58, 79, 78
56, 58, 59, 80, 79
57, 59, 60, 81, 80
58, 60, 61, 82, 81
59, 61, 62, 83, 82
60, 62, 63, 84, 83
61, 64, 65, 86, 85
62, 65, 66, 87, 86
63, 66, 67, 88, 87
64, 67, 68, 89, 88
65, 68, 69, 90, 89
66, 69, 70, 91, 90
67, 70, 71, 92, 91
68, 71, 72, 93, 92
69, 72, 73, 94, 93
70, 73, 74, 95, 94
71, 74, 75, 96, 95
72, 75, 76, 97, 96
73, 76, 77, 98, 97
74, 77, 78, 99, 98
75, 78, 79, 100, 99
76, 79, 80, 101, 100
77, 80, 81, 102, 101
78, 81, 82, 103, 102
79, 82, 83, 104, 103
80, 83, 84, 105, 104
*Solid Section, elset=Beam, material=BeamMaterial
1.0
*Nset, nset=Fixed
1, 22, 43, 64, 85
*Boundary
Fixed, 1, 2, 0.0
*Cload
21, 2, -0.083333333333
42, 2, -0.333333333333
63, 2, -0.166666666667
84, 2, -0.333333333333
105, 2, -0.083333333333

