*Heading
** FinEleMethod Q4 plane-stress plate-with-a-hole benchmark
** Quarter model: hole radius=1, outer radius=10, E=1000, nu=0.25
** Exact Kirsch tractions for remote uniaxial stress sigma_x=1
*Node
1, 1.000000000000000, 0.000000000000000
2, 0.9951847266721969, 0.09801714032956060
3, 0.9807852804032304, 0.1950903220161282
4, 0.9569403357322088, 0.2902846772544623
5, 0.9238795325112867, 0.3826834323650898
6, 0.8819212643483550, 0.4713967368259976
7, 0.8314696123025452, 0.5555702330196022
8, 0.7730104533627370, 0.6343932841636455
9, 0.7071067811865476, 0.7071067811865475
10, 0.6343932841636455, 0.7730104533627370
11, 0.5555702330196023, 0.8314696123025452
12, 0.4713967368259978, 0.8819212643483549
13, 0.3826834323650898, 0.9238795325112867
14, 0.2902846772544623, 0.9569403357322089
15, 0.1950903220161283, 0.9807852804032304
16, 0.09801714032956077, 0.9951847266721968
17, 6.123233995736766e-17, 1.000000000000000
18, 1.333521432163324, 0.000000000000000
19, 1.327100161978974, 0.1307079573488291
20, 1.307898191768023, 0.2601571256161514
21, 1.276100447000467, 0.3871008385474389
22, 1.232013157340833, 0.5103165587926710
23, 1.176060907489108, 0.6286176516093219
24, 1.108782548197974, 0.7408648128036115
25, 1.030826006845497, 0.8459770408526991
26, 0.9429420475402831, 0.9429420475402829
27, 0.8459770408526991, 1.030826006845497
28, 0.7408648128036117, 1.108782548197974
29, 0.6286176516093221, 1.176060907489108
30, 0.5103165587926711, 1.232013157340833
31, 0.3871008385474389, 1.276100447000467
32, 0.2601571256161515, 1.307898191768023
33, 0.1307079573488294, 1.327100161978974
34, 8.165463767466044e-17, 1.333521432163324
35, 1.778279410038923, 0.000000000000000
36, 1.769716508626381, 0.1743018624789533
37, 1.744110269810316, 0.3469251027391440
38, 1.701707295668321, 0.5162072646114044
39, 1.642915950021207, 0.6805180683378619
40, 1.568302425666174, 0.8382751110572084
41, 1.478585291630662, 0.9879591062092850
42, 1.374628572959808, 1.128128515095182
43, 1.257433429682935, 1.257433429682935
44, 1.128128515095182, 1.374628572959808
45, 0.9879591062092852, 1.478585291630662
46, 0.8382751110572088, 1.568302425666174
47, 0.6805180683378620, 1.642915950021207
48, 0.5162072646114044, 1.701707295668321
49, 0.3469251027391442, 1.744110269810316
50, 0.1743018624789536, 1.769716508626381
51, 1.088882093746905e-16, 1.778279410038923
52, 2.371373705661655, 0.000000000000000
53, 2.359954893106529, 0.2324352692816686
54, 2.325808424848214, 0.4626320598581116
55, 2.269263150042396, 0.6883734507977118
56, 2.190863630596247, 0.9074854291029243
57, 2.091364896739571, 1.117857826643878
58, 1.971725175670946, 1.317464642231003
59, 1.833096663305990, 1.504383553114011
60, 1.676814428000828, 1.676814428000828
61, 1.504383553114011, 1.833096663305990
62, 1.317464642231003, 1.971725175670946
63, 1.117857826643878, 2.091364896739571
64, 0.9074854291029244, 2.190863630596247
65, 0.6883734507977118, 2.269263150042397
66, 0.4626320598581118, 2.325808424848214
67, 0.2324352692816690, 2.359954893106529
68, 1.452047609110372e-16, 2.371373705661655
69, 3.162277660168380, 0.000000000000000
70, 3.147050428896263, 0.3099574131777586
71, 3.101515381641116, 0.6169297670266577
72, 3.026111045799993, 0.9179607499709743
73, 2.921563606347248, 1.210151269084681
74, 2.788879912276255, 1.490687369941125
75, 2.629337780093203, 1.756867336532429
76, 2.444473687745614, 2.006127710271547
77, 2.236067977499790, 2.236067977499790
78, 2.006127710271547, 2.444473687745614
79, 1.756867336532429, 2.629337780093203
80, 1.490687369941126, 2.788879912276255
81, 1.210151269084681, 2.921563606347248
82, 0.9179607499709743, 3.026111045799993
83, 0.6169297670266580, 3.101515381641116
84, 0.3099574131777592, 3.147050428896263
85, 1.936336607270194e-16, 3.162277660168380
86, 4.216965034285822, 0.000000000000000
87, 4.196659195031947, 0.4133348535304438
88, 4.135937233602639, 0.8226890664695744
89, 4.035383935680461, 1.224120333971012
90, 3.895967684492428, 1.613762653484067
91, 3.719031134750157, 1.987863556471668
92, 3.506278282151022, 2.342820246733689
93, 3.259758052968093, 2.675214297303843
94, 2.981844571770067, 2.981844571770067
95, 2.675214297303843, 3.259758052968093
96, 2.342820246733690, 3.506278282151022
97, 1.987863556471669, 3.719031134750156
98, 1.613762653484067, 3.895967684492428
99, 1.224120333971012, 4.035383935680461
100, 0.8226890664695747, 4.135937233602639
101, 0.4133348535304445, 4.196659195031947
102, 2.582146365677220e-16, 4.216965034285822
103, 5.623413251903491, 0.000000000000000
104, 5.596334980060386, 0.5511908858429352
105, 5.515360943091408, 1.097073502143615
106, 5.381270965237479, 1.632390700897271
107, 5.195356406286372, 2.151987084845759
108, 4.959407725072022, 2.650858656771378
109, 4.675697236377191, 3.124201010725542
110, 4.346957227299941, 3.567455601084421
111, 3.976353643835254, 3.976353643835253
112, 3.567455601084421, 4.346957227299941
113, 3.124201010725542, 4.675697236377191
114, 2.650858656771379, 4.959407725072021
115, 2.151987084845759, 5.195356406286372
116, 1.632390700897271, 5.381270965237480
117, 1.097073502143616, 5.515360943091408
118, 0.5511908858429362, 5.596334980060385
119, 3.443347519613210e-16, 5.623413251903491
120, 7.498942093324558, 0.000000000000000
121, 7.462832637475833, 0.7350248594846421
122, 7.354852023728915, 1.462971027766987
123, 7.176040164422395, 2.176827985310621
124, 6.928119115509903, 2.869720899380493
125, 6.613476492219895, 3.534976832440313
126, 6.235142475015808, 4.166189006188828
127, 5.796760627301729, 4.757278502337169
128, 5.302552805915039, 5.302552805915038
129, 4.757278502337169, 5.796760627301729
130, 4.166189006188829, 6.235142475015808
131, 3.534976832440314, 6.613476492219894
132, 2.869720899380494, 6.928119115509903
133, 2.176827985310621, 7.176040164422396
134, 1.462971027766988, 7.354852023728915
135, 0.7350248594846435, 7.462832637475832
136, 4.591777715790637e-16, 7.498942093324558
137, 10.00000000000000, 0.000000000000000
138, 9.951847266721970, 0.9801714032956060
139, 9.807852804032304, 1.950903220161282
140, 9.569403357322088, 2.902846772544623
141, 9.238795325112868, 3.826834323650898
142, 8.819212643483551, 4.713967368259977
143, 8.314696123025453, 5.555702330196022
144, 7.730104533627370, 6.343932841636455
145, 7.071067811865476, 7.071067811865475
146, 6.343932841636455, 7.730104533627370
147, 5.555702330196023, 8.314696123025453
148, 4.713967368259978, 8.819212643483549
149, 3.826834323650898, 9.238795325112868
150, 2.902846772544623, 9.569403357322090
151, 1.950903220161283, 9.807852804032304
152, 0.9801714032956077, 9.951847266721968
153, 6.123233995736766e-16, 10.00000000000000
*Element, type=CPS4, elset=PLATE
1, 1, 18, 19, 2
2, 2, 19, 20, 3
3, 3, 20, 21, 4
4, 4, 21, 22, 5
5, 5, 22, 23, 6
6, 6, 23, 24, 7
7, 7, 24, 25, 8
8, 8, 25, 26, 9
9, 9, 26, 27, 10
10, 10, 27, 28, 11
11, 11, 28, 29, 12
12, 12, 29, 30, 13
13, 13, 30, 31, 14
14, 14, 31, 32, 15
15, 15, 32, 33, 16
16, 16, 33, 34, 17
17, 18, 35, 36, 19
18, 19, 36, 37, 20
19, 20, 37, 38, 21
20, 21, 38, 39, 22
21, 22, 39, 40, 23
22, 23, 40, 41, 24
23, 24, 41, 42, 25
24, 25, 42, 43, 26
25, 26, 43, 44, 27
26, 27, 44, 45, 28
27, 28, 45, 46, 29
28, 29, 46, 47, 30
29, 30, 47, 48, 31
30, 31, 48, 49, 32
31, 32, 49, 50, 33
32, 33, 50, 51, 34
33, 35, 52, 53, 36
34, 36, 53, 54, 37
35, 37, 54, 55, 38
36, 38, 55, 56, 39
37, 39, 56, 57, 40
38, 40, 57, 58, 41
39, 41, 58, 59, 42
40, 42, 59, 60, 43
41, 43, 60, 61, 44
42, 44, 61, 62, 45
43, 45, 62, 63, 46
44, 46, 63, 64, 47
45, 47, 64, 65, 48
46, 48, 65, 66, 49
47, 49, 66, 67, 50
48, 50, 67, 68, 51
49, 52, 69, 70, 53
50, 53, 70, 71, 54
51, 54, 71, 72, 55
52, 55, 72, 73, 56
53, 56, 73, 74, 57
54, 57, 74, 75, 58
55, 58, 75, 76, 59
56, 59, 76, 77, 60
57, 60, 77, 78, 61
58, 61, 78, 79, 62
59, 62, 79, 80, 63
60, 63, 80, 81, 64
61, 64, 81, 82, 65
62, 65, 82, 83, 66
63, 66, 83, 84, 67
64, 67, 84, 85, 68
65, 69, 86, 87, 70
66, 70, 87, 88, 71
67, 71, 88, 89, 72
68, 72, 89, 90, 73
69, 73, 90, 91, 74
70, 74, 91, 92, 75
71, 75, 92, 93, 76
72, 76, 93, 94, 77
73, 77, 94, 95, 78
74, 78, 95, 96, 79
75, 79, 96, 97, 80
76, 80, 97, 98, 81
77, 81, 98, 99, 82
78, 82, 99, 100, 83
79, 83, 100, 101, 84
80, 84, 101, 102, 85
81, 86, 103, 104, 87
82, 87, 104, 105, 88
83, 88, 105, 106, 89
84, 89, 106, 107, 90
85, 90, 107, 108, 91
86, 91, 108, 109, 92
87, 92, 109, 110, 93
88, 93, 110, 111, 94
89, 94, 111, 112, 95
90, 95, 112, 113, 96
91, 96, 113, 114, 97
92, 97, 114, 115, 98
93, 98, 115, 116, 99
94, 99, 116, 117, 100
95, 100, 117, 118, 101
96, 101, 118, 119, 102
97, 103, 120, 121, 104
98, 104, 121, 122, 105
99, 105, 122, 123, 106
100, 106, 123, 124, 107
101, 107, 124, 125, 108
102, 108, 125, 126, 109
103, 109, 126, 127, 110
104, 110, 127, 128, 111
105, 111, 128, 129, 112
106, 112, 129, 130, 113
107, 113, 130, 131, 114
108, 114, 131, 132, 115
109, 115, 132, 133, 116
110, 116, 133, 134, 117
111, 117, 134, 135, 118
112, 118, 135, 136, 119
113, 120, 137, 138, 121
114, 121, 138, 139, 122
115, 122, 139, 140, 123
116, 123, 140, 141, 124
117, 124, 141, 142, 125
118, 125, 142, 143, 126
119, 126, 143, 144, 127
120, 127, 144, 145, 128
121, 128, 145, 146, 129
122, 129, 146, 147, 130
123, 130, 147, 148, 131
124, 131, 148, 149, 132
125, 132, 149, 150, 133
126, 133, 150, 151, 134
127, 134, 151, 152, 135
128, 135, 152, 153, 136
*Nset, nset=XAXIS
1, 18, 35, 52, 69, 86, 103, 120, 137
*Nset, nset=YAXIS
17, 34, 51, 68, 85, 102, 119, 136, 153
*Material, name=STEEL
*Elastic
1000, 0.25
*Solid Section, elset=PLATE, material=STEEL
1.0
*Boundary
XAXIS, 2, 2, 0.0
YAXIS, 1, 1, 0.0
*Cload
137, 1, 0.4779342740610761
137, 2, -0.0006732736740084244
138, 1, 0.9518197644556449
138, 2, -0.004204884788141968
139, 1, 0.9396646966693422
139, 2, -0.008047647721759624
140, 1, 0.9193813869990090
140, 2, -0.01119735263728848
141, 1, 0.8909468202802067
141, 2, -0.01338274906231785
142, 1, 0.8543559501419491
142, 2, -0.01441563212414030
143, 1, 0.8096457651493127
143, 2, -0.01420705062701579
144, 1, 0.7569220947501893
144, 2, -0.01277496746942166
145, 1, 0.6963865576827075
145, 2, -0.01024271269129701
146, 1, 0.6283609847642219
146, 2, -0.006828362373815014
147, 1, 0.5533068103651078
147, 2, -0.002825958073702412
148, 1, 0.4718373089173420
148, 2, 0.001419815838187195
149, 1, 0.3847211221109870
149, 2, 0.005543316163447888
150, 1, 0.2928762304147607
150, 2, 0.009189429822852020
151, 1, 0.1973543086537008
151, 2, 0.01204415595628727
152, 1, 0.09931620224423161
152, 2, 0.01386164746598922
153, 1, 0.02466951519538124
153, 2, 0.007242691601761630
